%chk=C:\Users\FengXiaojie\PycharmProjects\pythonProject\ionic_liquid\design\test\111.chk
#p opt b3lyp/6-311+g(2d,p) geom=connectivity

Title Card Required

0 2
 C                 -2.08303470   -3.86590233    0.07223635
 C                 -0.71542831   -3.60428314   -0.23307636
 C                 -0.26997396   -2.33336379   -0.42797215
 C                 -1.22162889   -1.35252671   -0.28366193
 C                 -2.54615515   -1.58206719   -0.05960436
 C                 -3.02233624   -2.84104142    0.16846056
 H                 -2.39102274   -4.87605592    0.22401303
 H                  0.74553610   -2.11169568   -0.67010416
 H                 -4.05397986   -3.03171355    0.39496349
 C                 -0.94118720    0.09157106   -0.44578871
 H                 -0.31980956    0.52362997    0.31159767
 C                 -2.32417329    0.73841410   -0.31543324
 C                 -2.64407952    2.08111573   -0.28354774
 C                 -3.99926749    2.42412671   -0.11236725
 C                 -4.99566757    1.41223975   -0.02670548
 C                 -4.62555566    0.04767367   -0.04383879
 C                 -3.27401338   -0.24275299   -0.14259490
 H                 -1.88789893    2.83160031   -0.38633021
 H                 -6.03106343    1.68517252    0.05653015
 H                 -5.36236297   -0.72696032    0.02833746
 C                 -0.22337674    0.11830230   -1.77905984
 C                  1.24872466    0.00461766   -1.63439980
 C                 -0.77646427    0.15862023   -3.00687414
 C                  2.06740914    0.11960321   -2.65320087
 C                  1.80262953   -0.27524889   -0.25094906
 C                  0.18701237    0.09040041   -4.25200379
 H                 -1.83677419    0.19871335   -3.09841879
 C                  3.55312531    0.22316019   -2.38235642
 C                  1.52318310    0.15471510   -4.05850116
 C                  3.05716994   -0.24515916    0.00501657
 H                  1.15939064   -0.50052850    0.55853045
 C                 -0.35949803   -0.07058243   -5.66132760
 C                  4.03165011    0.08135559   -1.13774958
 C                  4.51253436    0.51011503   -3.52524557
 C                  2.48809443    0.27879644   -5.20765785
 C                  0.50659063   -0.05823303   -6.70431573
 H                 -1.43821762   -0.20723097   -5.81911714
 C                  5.51329768    0.30638157   -0.89437969
 C                  3.97694451    0.52277604   -4.94549406
 C                  5.80334568    0.78315527   -3.26421559
 C                  2.01896094    0.17822879   -6.46682579
 H                  0.13255509   -0.20181671   -7.68460488
 C                  6.33379123    0.80676599   -1.83389204
 C                  4.81099508    0.73530693   -5.96344155
 C                  6.75757743    1.09701941   -4.41463967
 C                  2.99560888    0.34999534   -7.64097162
 C                  6.29945315    1.08908976   -5.68608280
 C                  4.28450941    0.63750782   -7.40641958
 H                  2.62657505    0.23619371   -8.62912738
 H                  6.98217576    1.31004205   -6.50098595
 H                  4.96609480    0.78711825   -8.22442447
 C                  3.31544848   -0.50639249    1.46727052
 C                  4.71724873   -1.15396063    1.64622086
 C                  3.37672383    0.92475215    2.11004806
 C                  5.04549099   -1.29123479    3.18242854
 H                  5.46766200   -0.53332409    1.13243197
 H                  4.70149024   -2.13683478    1.20606458
 C                  3.64651594    0.82171269    3.64190727
 H                  4.16399221    1.49142973    1.61382672
 H                  2.41891502    1.42111968    1.97005706
 C                  4.99957298    0.10690015    3.91227611
 H                  6.04782050   -1.70134847    3.32185058
 H                  4.31689988   -1.93833772    3.60173755
 H                  3.68808077    1.82610168    4.07735687
 H                  2.84196439    0.26820933    4.07514519
 H                  5.10383259   -0.04844080    4.98227949
 H                  5.78404963    0.71379122    3.55335269
 C                  2.00112028   -1.39192236    2.13709047
 C                  1.62981139   -2.91429006    1.60983671
 C                  2.31575378   -1.44109306    3.58391608
 H                  1.07546515   -0.84328058    1.96939771
 C                  0.35133895   -3.55536098    2.50360545
 H                  2.50281012   -3.52003326    1.72251097
 H                  1.35007820   -2.87290414    0.57546392
 C                  1.15688584   -2.03252901    4.39369660
 H                  3.20865238   -2.02091421    3.73952326
 H                  2.47513687   -0.43885568    3.90849070
 C                  0.83535967   -3.47361547    4.05136436
 H                 -0.50336171   -2.93850584    2.30820923
 H                  1.42825725   -1.97200405    5.42117771
 H                  0.26759341   -1.47420734    4.19945458
 H                  1.71377452   -4.10873957    4.13902610
 C                 -0.17734854   -3.90684179    5.21444771
 C                 -4.38632928    3.91264552   -0.00417943
 H                 -3.58197161    4.45754095    0.44992540
 H                 -4.57647430    4.30588675   -0.97979895
 H                 -5.26606333    4.00882738    0.59882624
 C                  0.10419877   -4.84428501   -0.30699956
 H                 -0.00005628   -5.28807114   -1.28044277
 H                  1.14999845   -4.72362057   -0.11654926
 C                 -0.59840048   -5.61345699    0.77013512
 C                 -0.26479772   -7.13423599    0.59030364
 C                 -0.16372567   -5.11397350    2.24239133
 H                 -1.64169431   -5.43045701    0.63684533
 C                  1.25419788   -7.09754417    0.42179634
 H                 -0.71861488   -7.52626916   -0.30083952
 C                 -0.84795120   -7.84576338    1.79133162
 C                  0.81493874   -6.14177612    2.71711769
 H                 -0.99876141   -5.22387007    2.89120362
 H                  1.71282520   -8.02011337    0.11529730
 H                  1.39565945   -6.35647686   -0.33378774
 C                  1.90171115   -6.65466370    1.75460682
 C                  0.03766039   -7.47320663    2.98873287
 H                 -0.89117587   -8.91466021    1.72240290
 H                 -1.84696658   -7.45777727    1.88442918
 H                  1.27379279   -5.78235096    3.61400040
 H                  2.28796918   -7.50331000    2.27682527
 H                  2.69002429   -5.96271738    1.54348355
 H                  0.79686978   -8.19968880    3.14026954
 H                 -0.60446626   -7.42817841    3.85397461
 C                 -0.86076945   -4.22732150    6.24936328
 C                 -1.72641190   -4.63325710    7.56024344
 C                 -3.20601804   -4.55048185    7.19411261
 H                 -1.51648138   -5.63998211    7.87057603
 H                 -1.53490203   -3.98253561    8.39088412
 H                 -3.85034447   -4.82719311    8.06662910
 H                 -3.45410928   -3.55289983    6.88393488
 H                 -3.36126957   -5.24502550    6.38569341
 C                  6.16359011    0.03223476    0.32769858
 H                  6.23073865   -0.93855046    0.77335939
 C                  6.80276905    1.24779224    0.81909195
 H                  6.19365528    2.10922596    0.71385793
 H                  7.07455793    1.14726256    1.85615116
 C                  8.03786629    1.32186669   -0.10020744
 H                  8.59584998    2.15869058    0.19548346
 H                  8.60341137    0.41597011    0.07458839
 C                  7.80786384    1.47564190   -1.72394436
 H                  7.78950165    1.33293977   -4.21379785
 H                  8.81835212    1.20156681   -1.69554076
 H                  7.75958097    0.92467180   -2.63829598

 1 2 1.5 6 1.5 7 1.0
 2 3 1.5 88 1.0
 3 4 1.5 8 1.0
 4 5 1.5 10 1.0
 5 6 1.5 17 1.0
 6 9 1.0
 7
 8
 9
 10 11 1.0 12 1.0 21 1.0
 11
 12 13 1.5 17 1.5
 13 14 1.5 18 1.0
 14 15 1.5 84 1.0
 15 16 1.5 19 1.0
 16 17 1.5 20 1.0
 17
 18
 19
 20
 21 22 1.0 23 2.0
 22 24 2.0 25 1.0
 23 26 1.0 27 1.0
 24 28 1.0 29 1.0
 25 30 2.0 31 1.0
 26 29 2.0 32 1.0
 27
 28 33 2.0 34 1.0
 29 35 1.0
 30 33 1.0 52 1.0
 31
 32 36 2.0 37 1.0
 33 38 1.0
 34 39 1.0 40 2.0
 35 39 1.0 41 2.0
 36 41 1.0 42 1.0
 37
 38 43 2.0 119 1.0
 39 44 2.0
 40 43 1.0 45 1.0
 41 46 1.0
 42
 43 127 1.0
 44 47 1.0 48 1.0
 45 47 2.0 128 1.0
 46 49 1.0 48 2.0
 47 50 1.0
 48 51 1.0
 49
 50
 51
 52 53 1.0 54 1.0 68 1.0
 53 55 1.0 56 1.0 57 1.0
 54 58 1.0 59 1.0 60 1.0
 55 61 1.0 62 1.0 63 1.0
 56
 57
 58 61 1.0 64 1.0 65 1.0
 59
 60
 61 66 1.0 67 1.0
 62
 63
 64
 65
 66
 67
 68 69 1.0 70 1.0 71 1.0
 69 72 1.0 73 1.0 74 1.0
 70 75 1.0 76 1.0 77 1.0
 71
 72 78 1.0 79 1.0 93 1.0
 73
 74
 75 78 1.0 80 1.0 81 1.0
 76
 77
 78 82 1.0 83 1.0
 79
 80
 81
 82
 83 111 3.0
 84 85 1.0 86 1.0 87 1.0
 85
 86
 87
 88 89 1.0 90 1.0 91 1.0
 89
 90
 91 92 1.0 93 1.0 94 1.0
 92 95 1.0 96 1.0 97 1.0
 93 98 1.0 99 1.0
 94
 95 100 1.0 101 1.0 102 1.0
 96
 97 103 1.0 104 1.0 105 1.0
 98 102 1.0 106 1.0 103 1.0
 99
 100
 101
 102 107 1.0 108 1.0
 103 109 1.0 110 1.0
 104
 105
 106
 107
 108
 109
 110
 111 112 1.0
 112 113 1.0 114 1.0 115 1.0
 113 116 1.0 117 1.0 118 1.0
 114
 115
 116
 117
 118
 119 120 1.0 121 1.0
 120
 121 122 1.0 123 1.0 124 1.0
 122
 123
 124 125 1.0 126 1.0 127 1.0
 125
 126
 127 130 1.0 129 1.0
 128
 129
 130

