%mem=16GB
%chk=P432418.chk
%nprocshared=8
# opt freq b3lyp/6-311g(d,p) geom=connectivity

Title Card Required

0 1
 C                 10.5738    0.7314   -0.3311
 C                  6.6264   -1.8609    1.1505
 C                  7.1273   -0.7372    0.5277
 C                  8.5775   -0.5753    0.4158
 N                  9.1235    0.5639   -0.2162
 C                  8.2127    1.5217   -0.7256
 C                  6.7580    1.3490   -0.6077
 C                  5.9087    2.3001   -1.1143
 C                  4.5330    2.1278   -0.9980
 C                  4.0434    1.0029   -0.3747
 C                  2.6628    0.8284   -0.2570
 C                  1.7899    1.7531   -0.7487
 C                  0.4320    1.5597   -0.6209
 C                 -0.0410    0.4312    0.0041
 C                 -1.5100    0.2392    0.1330
 N                 -2.0552   -0.8770    0.7518
 C                 -1.1328   -1.8588    1.2743
 C                  0.3041   -1.6489    1.1365
 C                  1.1768   -2.5644    1.6233
 C                  2.5637   -2.4003    1.5110
 C                  3.0432   -1.2673    0.8834
 C                  4.4203   -1.1102    0.7752
 C                  5.2720   -2.0577    1.2799
 C                  6.2657    0.2043    0.0264
 C                  4.8810    0.0352    0.1412
 C                  2.1768   -0.3208    0.3796
 C                  0.8055   -0.5184    0.5099
 C                 -3.4748   -1.1867    0.9176
 C                 -3.9329   -2.0230   -0.2133
 C                 -3.9660   -1.5686   -1.5906
 C                 -4.8603   -0.6042   -2.1728
 C                 -5.0757    0.7898   -1.8974
 C                 -5.5426    1.3270   -0.6190
 C                 -6.8778    0.7729   -0.1599
 C                 -7.1976    1.4349    1.1654
 C                 -8.5322    0.9266    1.6939
 N                 -9.5997    1.2108    0.7853
 O                  9.3394   -1.4582    0.8866
 O                  8.6297    2.5540   -1.2970
 O                 -2.2579    1.1194   -0.3335
 O                 -1.5832   -2.8936    1.8478
 H                 10.8653    1.3416    0.5665
 H                 11.0857   -0.2479   -0.3447
 H                 10.7398    1.3261   -1.2522
 H                  7.3290   -2.6001    1.5435
 H                  6.2687    3.1859   -1.6048
 H                  3.8638    2.8627   -1.3893
 H                  2.1039    2.6450   -1.2417
 H                 -0.2623    2.2927   -1.0106
 H                  0.7935   -3.4444    2.1109
 H                  3.1939   -3.1592    1.9161
 H                  4.9639   -2.9473    1.7716
 H                 -3.5428   -1.8203    1.8915
 H                 -4.0247   -0.2973    1.1688
 H                 -4.9251   -2.5473    0.0717
 H                 -3.2439   -2.9601   -0.1666
 H                 -2.8881   -1.2495   -1.9183
 H                 -4.0429   -2.5168   -2.2776
 H                 -4.6083   -0.6355   -3.3325
 H                 -5.8917   -1.1625   -2.2760
 H                 -5.7794    1.2442   -2.7119
 H                 -4.1256    1.3625   -2.1683
 H                 -5.8286    2.4371   -0.8615
 H                 -4.8697    1.4601    0.2109
 H                 -6.8506   -0.3121    0.0231
 H                 -7.6957    1.0334   -0.8524
 H                 -7.2208    2.5139    1.0305
 H                 -6.3747    1.1953    1.8577
 H                 -8.7481    1.4549    2.6451
 H                 -8.5017   -0.1572    1.8974
 H                 -9.9147    0.3833    0.2683
 H                 -9.4752    2.0672    0.2297

 1 5 1.0 42 1.0 43 1.0 44 1.0
 2 3 1.5 23 1.5 45 1.0
 3 4 1.5 24 1.5
 4 5 1.5 38 2.0
 5 6 1.5
 6 7 1.5 39 2.0
 7 8 1.5 24 1.5
 8 9 1.5 46 1.0
 9 10 1.5 47 1.0
 10 11 1.5 25 1.5
 11 12 1.5 26 1.5
 12 13 1.5 48 1.0
 13 14 1.5 49 1.0
 14 15 1.5 27 1.5
 15 16 1.5 40 2.0
 16 17 1.5 28 1.0
 17 18 1.5 41 2.0
 18 19 1.5 27 1.5
 19 20 1.5 50 1.0
 20 21 1.5 51 1.0
 21 22 1.5 26 1.5
 22 23 1.5 25 1.5
 23 52 1.0
 24 25 1.5
 25
 26 27 1.5
 27
 28 29 1.0 53 1.0 54 1.0
 29 30 1.0 55 1.0 56 1.0
 30 31 1.0 57 1.0 58 1.0
 31 32 1.0 59 1.0 60 1.0
 32 33 1.0 61 1.0 62 1.0
 33 34 1.0 63 1.0 64 1.0
 34 35 1.0 65 1.0 66 1.0
 35 36 1.0 67 1.0 68 1.0
 36 37 1.0 69 1.0 70 1.0
 37 71 1.0 72 1.0
 38
 39
 40
 41
 42
 43
 44
 45
 46
 47
 48
 49
 50
 51
 52
 53
 54
 55
 56
 57
 58
 59
 60
 61
 62
 63
 64
 65
 66
 67
 68
 69
 70
 71
 72
